NAME: test1390
TYPE: TSP
DIMENSION: 11
EDGE_WEIGHT_TYPE: EUC_2D
NODE_COORD_SECTION
1 23.195522077422115 47.997800362153974
2 68.09188739303951 40.08403051944583
3 45.62442865746795 52.09708013247334
4 16.26182992713915 69.37399427203026
5 46.45789723894052 64.05110411387884
6 96.83951375968249 9.677746789718466
7 48.65708654015415 85.34881798735756
8 54.96525200660929 41.187082510682785
9 72.19665466451454 95.32052669124333
10 13.317948926122213 29.374287335076755
11 27.77603071066892 43.014037555831166
EOF
